
50
139346

2623 3288
8960 9833
9072 9593
8932 9184
8779 7900
8841 8751
628 5
5966 6270
1817 2477
7432 7305
4780 4324
4771 5601
5727 5428
5182 5762
8654 8274
9527 9816
2751 3456
7342 8062
9478 8893
4002 3921
406 1235
5785 4974
7200 7647
4802 5242
850 1845
6655 7055
3366 3246
9659 8863
1283 1685
5934 5939
3015 3855
10224 9850
987 1387
8553 8802
3718 4177
4356 3719
3043 2082
4222 4946
9196 9294
9207 9994
9897 9396
6928 6113
1613 2361
5438 5073
6106 6498
2860 2960
10015 9870
710 846
2652 2349
1686 2033
